$ 1 0.000005 10.20027730826997 50 5 50 5e-11
c 112 448 224 448 0 0.000001 8.654120427273431e-11 0
r 224 448 224 368 0 1000
c 224 368 224 304 0 0.000003 3.3333333300002117 3.33333333
370 224 224 224 304 1 0 0
c 224 448 336 448 0 0.000002 8.444598844039229e-14 0
r 112 448 112 368 0 1000
v 112 368 112 224 0 0 40 5 0 0 0.5
s 112 224 224 224 0 1 false
s 224 224 336 224 0 1 false
r 336 448 336 368 0 1000
v 336 368 336 224 0 0 40 5 0 0 0.5
x 66 417 96 420 4 24 R1
x 178 418 208 421 4 24 R3
x 367 416 397 419 4 24 R2
x 153 490 183 493 4 24 C1
x 267 489 297 492 4 24 C2
x 176 344 206 347 4 24 C3
x 62 300 91 303 4 24 E1
x 365 299 394 302 4 24 E2
x 141 541 309 544 6 24 31-Jan-2021-z3
